
Gurobi 9.1.2 (win64) logging started Tue Dec  7 09:46:09 2021

Gurobi Optimizer version 9.1.2 build v9.1.2rc0 (win64)
Thread count: 8 physical cores, 8 logical processors, using up to 8 threads
Optimize a model with 1 rows, 74 columns and 73 nonzeros
Model fingerprint: 0xa32269a8
Variable types: 1 continuous, 73 integer (73 binary)
Coefficient statistics:
  Matrix range     [1e+00, 1e+01]
  Objective range  [1e+00, 1e+00]
  Bounds range     [6e+01, 6e+01]
  RHS range        [1e+01, 1e+01]
Presolve time: 0.00s
Presolved: 1 rows, 74 columns, 73 nonzeros
Variable types: 1 continuous, 73 integer (73 binary)

Root simplex log...

Iteration    Objective       Primal Inf.    Dual Inf.      Time
       0   -6.0999447e+01   1.940116e-01   0.000000e+00     15s
       4   -6.0999447e+01   0.000000e+00   0.000000e+00     15s

Root relaxation: objective -6.099945e+01, 4 iterations, 0.00 seconds

    Nodes    |    Current Node    |     Objective Bounds      |     Work
 Expl Unexpl |  Obj  Depth IntInf | Incumbent    BestBd   Gap | It/Node Time

     0     0  -60.99945    0    1          -  -60.99945      -     -   14s
H    0     0                       0.6140172  -60.99945      -     -   15s
H    0     0                       0.5130505  -60.99945      -     -   15s
     0     0  -48.09908    0    3    0.51305  -48.09908  9475%     -   15s
H    0     0                       0.2562196  -48.09908      -     -   16s
     0     0  -33.58838    0    4    0.25622  -33.58838      -     -   16s
     0     0  -30.52866    0    7    0.25622  -30.52866      -     -   17s
     0     0  -30.22305    0    7    0.25622  -30.22305      -     -   18s
     0     0  -30.19429    0    7    0.25622  -30.19429      -     -   18s
     0     0  -28.18152    0    8    0.25622  -28.18152      -     -   18s
     0     0  -28.17984    0    8    0.25622  -28.17984      -     -   18s
     0     0  -28.11722    0    6    0.25622  -28.11722      -     -   18s
     0     0  -28.07400    0    8    0.25622  -28.07400      -     -   18s
     0     0  -28.06941    0    8    0.25622  -28.06941      -     -   18s
     0     0  -20.04804    0    5    0.25622  -20.04804  7925%     -   18s
     0     0  -19.91515    0    7    0.25622  -19.91515  7873%     -   18s
     0     0  -19.91041    0    7    0.25622  -19.91041  7871%     -   18s
     0     0  -19.03715    0    7    0.25622  -19.03715  7530%     -   18s
     0     0  -18.96696    0    7    0.25622  -18.96696  7503%     -   19s
     0     0  -18.91880    0    9    0.25622  -18.91880  7484%     -   19s
     0     0  -18.91152    0   10    0.25622  -18.91152  7481%     -   19s
     0     0  -18.69865    0    9    0.25622  -18.69865  7398%     -   19s
     0     0  -18.69865    0    3    0.25622  -18.69865  7398%     -   19s
     0     0  -18.69865    0    9    0.25622  -18.69865  7398%     -   19s
     0     0  -18.69865    0    7    0.25622  -18.69865  7398%     -   20s
     0     0  -18.61647    0    9    0.25622  -18.61647  7366%     -   20s
     0     0  -18.57900    0    9    0.25622  -18.57900  7351%     -   20s
     0     0  -18.47076    0    9    0.25622  -18.47076  7309%     -   20s
     0     0  -18.25699    0    9    0.25622  -18.25699  7226%     -   20s
     0     0  -16.33698    0    7    0.25622  -16.33698  6476%     -   20s
     0     0  -16.04899    0    8    0.25622  -16.04899  6364%     -   20s
     0     0  -15.86277    0    9    0.25622  -15.86277  6291%     -   20s
     0     0  -12.88287    0    7    0.25622  -12.88287  5128%     -   20s
     0     0  -12.31785    0    8    0.25622  -12.31785  4908%     -   20s
     0     0  -12.15285    0    8    0.25622  -12.15285  4843%     -   20s
     0     0  -12.12194    0    9    0.25622  -12.12194  4831%     -   20s
     0     0  -12.10668    0    9    0.25622  -12.10668  4825%     -   20s
     0     0  -12.10536    0    9    0.25622  -12.10536  4825%     -   20s
     0     0  -12.09746    0    8    0.25622  -12.09746  4822%     -   20s
     0     0  -12.07613    0    8    0.25622  -12.07613  4813%     -   20s
     0     0  -12.07252    0    9    0.25622  -12.07252  4812%     -   20s
     0     0  -11.97989    0    9    0.25622  -11.97989  4776%     -   20s
     0     0  -11.86064    0    7    0.25622  -11.86064  4729%     -   20s
     0     0  -11.77850    0    8    0.25622  -11.77850  4697%     -   20s
     0     0  -11.76556    0    8    0.25622  -11.76556  4692%     -   20s
     0     0  -11.73844    0    8    0.25622  -11.73844  4681%     -   20s
     0     0  -11.69696    0    9    0.25622  -11.69696  4665%     -   20s
     0     0  -11.64327    0    9    0.25622  -11.64327  4644%     -   20s
     0     0  -11.52258    0    9    0.25622  -11.52258  4597%     -   20s
     0     0  -11.49866    0   10    0.25622  -11.49866  4588%     -   20s
     0     0  -10.36437    0    7    0.25622  -10.36437  4145%     -   20s
     0     0  -10.34819    0    8    0.25622  -10.34819  4139%     -   20s
     0     0  -10.33275    0    9    0.25622  -10.33275  4133%     -   20s
     0     0  -10.33271    0    9    0.25622  -10.33271  4133%     -   20s
     0     0  -10.31798    0    8    0.25622  -10.31798  4127%     -   20s
     0     0  -10.30971    0    9    0.25622  -10.30971  4124%     -   20s
     0     0  -10.29905    0   10    0.25622  -10.29905  4120%     -   20s
     0     0  -10.29858    0    9    0.25622  -10.29858  4119%     -   20s
     0     0  -10.29858    0    9    0.25622  -10.29858  4119%     -   20s
     0     2   -8.21722    0    9    0.25622   -8.21722  3307%     -   20s

Cutting planes:
  Cover: 5
  MIR: 6
  Zero half: 1
  Relax-and-lift: 2
  Lazy constraints: 10

Explored 58 nodes (411 simplex iterations) in 20.86 seconds
Thread count was 8 (of 8 available processors)

Solution count 3: 0.25622 0.513051 0.614017 

Optimal solution found (tolerance 1.00e-04)
Best objective 2.562195626399e-01, best bound 2.562195626399e-01, gap 0.0000%

User-callback calls 507, time in user-callback 24.44 sec
